c User generated cnf file
p cnf 13 21
8 -8 9 0 
13 -5 8 0 
7 -8 13 0 
6 -11 4 0 
4 -2 5 0 
6 -12 8 0 
11 13 -4 0 
5 -8 11 0 
5 4 -13 0 
1 -4 4 0 
5 -8 12 0 
11 6 -4 0 
6 3 -12 0 
10 -4 12 0 
10 2 -6 0 
10 -3 3 0 
2 7 -7 0 
2 -2 3 0 
13 -6 12 0 
2 -10 6 0 
5 3 -8 0 
